
Gurobi 11.0.0 (linux64) logging started Mon Jul 22 16:37:24 2024

Set parameter LogFile to value "/lustre1/scratch/348/vsc34888/JointResearch/05.Models/06.Benchmarking/M.Random_forest/RTS24_mod2_ByStages_nc40/openStarNet_RTS24_mod2_ByStages_nc40.log"
Set parameter Method to value 2
Set parameter MIPFocus to value 1
Set parameter Presolve to value 2
Set parameter RINS to value 100
Set parameter MIPGap to value 0.01
Set parameter Threads to value 36
Set parameter TimeLimit to value 259200
Set parameter IterationLimit to value 760000000
Gurobi Optimizer version 11.0.0 build v11.0.0rc2 (linux64 - "Rocky Linux 8.9 (Green Obsidian)")

CPU model: Intel(R) Xeon(R) Gold 6240 CPU @ 2.60GHz, instruction set [SSE2|AVX|AVX2|AVX512]
Thread count: 36 physical cores, 36 logical processors, using up to 36 threads

Optimize a model with 14203 rows, 9611 columns and 38727 nonzeros
Model fingerprint: 0xc771f9c8
Variable types: 9590 continuous, 21 integer (21 binary)
Coefficient statistics:
  Matrix range     [1e-03, 1e+03]
  Objective range  [1e+00, 1e+00]
  Bounds range     [4e-05, 2e+00]
  RHS range        [4e-05, 2e+00]
Presolve removed 8457 rows and 4861 columns
Presolve time: 0.06s
Presolved: 5746 rows, 4750 columns, 20752 nonzeros
Variable types: 4729 continuous, 21 integer (21 binary)
Found heuristic solution: objective 121.3797868
Root relaxation presolve removed 7 rows and 7 columns
Root relaxation presolved: 5739 rows, 4743 columns, 20738 nonzeros

Root barrier log...

Ordering time: 0.00s

Barrier statistics:
 Dense cols : 21
 AA' NZ     : 3.852e+04
 Factor NZ  : 1.104e+05 (roughly 5 MB of memory)
 Factor Ops : 2.263e+06 (less than 1 second per iteration)
 Threads    : 36

                  Objective                Residual
Iter       Primal          Dual         Primal    Dual     Compl     Time
   0   1.70969958e+06 -5.60981431e+07  1.39e+01 3.81e+02  2.35e+04     0s
   1   4.80413895e+05 -2.48998880e+07  3.83e+00 1.95e-09  5.82e+03     0s
   2   5.38520969e+04 -1.86203431e+07  3.81e-01 1.88e-09  1.73e+03     0s
   3   2.05535989e+04 -2.25534750e+06  5.73e-02 2.70e-10  1.85e+02     0s
   4   1.16815120e+04 -1.65783210e+05  1.02e-03 3.61e-11  1.33e+01     0s
   5   3.61233036e+03 -3.29019759e+04  1.02e-04 1.71e-11  2.72e+00     0s
   6   1.19692635e+03 -6.54669484e+03  2.00e-05 3.04e-12  5.77e-01     0s
   7   5.32629806e+02 -2.06064241e+03  5.02e-06 1.05e-12  1.93e-01     0s
   8   3.03284344e+02 -6.15084846e+02  2.21e-06 3.64e-12  6.85e-02     0s
   9   2.00102542e+02 -2.02408771e+02  1.19e-06 9.09e-13  3.00e-02     0s
  10   1.27455589e+02 -4.19284131e+01  5.62e-07 3.64e-12  1.26e-02     0s
  11   8.45849839e+01  1.40402399e+01  2.29e-07 1.82e-12  5.26e-03     0s
  12   7.26407683e+01  4.15239002e+01  1.44e-07 1.82e-12  2.32e-03     0s
  13   6.28162775e+01  4.56259416e+01  7.46e-08 1.82e-12  1.28e-03     0s
  14   5.88351152e+01  4.87239376e+01  4.43e-08 1.82e-12  7.54e-04     0s
  15   5.69581845e+01  5.04481490e+01  3.03e-08 9.09e-13  4.85e-04     0s
  16   5.53763421e+01  5.15605584e+01  1.88e-08 1.82e-12  2.84e-04     0s
  17   5.44511699e+01  5.19039252e+01  1.21e-08 1.82e-12  1.90e-04     0s
  18   5.37592596e+01  5.25822898e+01  7.00e-09 1.82e-12  8.77e-05     0s
  19   5.31128755e+01  5.27155114e+01  2.37e-09 9.09e-13  2.96e-05     0s
  20   5.28934199e+01  5.27453149e+01  8.22e-10 1.82e-12  1.10e-05     0s
  21   5.27983116e+01  5.27646844e+01  2.91e-10 1.82e-12  2.51e-06     0s
  22   5.27791579e+01  5.27721158e+01  1.42e-10 2.73e-12  5.25e-07     0s
  23   5.27743316e+01  5.27739222e+01  1.06e-10 3.64e-12  3.05e-08     0s
  24   5.27741530e+01  5.27741484e+01  2.12e-09 1.82e-12  3.53e-10     0s
  25   5.27741528e+01  5.27741527e+01  2.77e-10 3.64e-12  8.78e-12     0s

Barrier solved model in 25 iterations and 0.25 seconds (0.20 work units)
Optimal objective 5.27741528e+01


Root relaxation: objective 5.277415e+01, 812 iterations, 0.17 seconds (0.09 work units)

    Nodes    |    Current Node    |     Objective Bounds      |     Work
 Expl Unexpl |  Obj  Depth IntInf | Incumbent    BestBd   Gap | It/Node Time

     0     0   52.77415    0   17  121.37979   52.77415  56.5%     -    0s
     0     0   53.83210    0   12  121.37979   53.83210  55.6%     -    0s
H    0     0                     115.3564595   53.83210  53.3%     -    0s
H    0     0                     108.3861448   53.98398  50.2%     -    0s
     0     0   53.98398    0   12  108.38614   53.98398  50.2%     -    0s
     0     0   53.99236    0   12  108.38614   53.99236  50.2%     -    0s
     0     0   53.99236    0   12  108.38614   53.99236  50.2%     -    0s
H    0     0                     103.5313728   53.99236  47.8%     -    0s
     0     0   55.00632    0   16  103.53137   55.00632  46.9%     -    0s
H    0     0                      95.5984614   55.00632  42.5%     -    0s
     0     0   55.06728    0   16   95.59846   55.06728  42.4%     -    0s
     0     0   55.06728    0   15   95.59846   55.06728  42.4%     -    0s
     0     0   55.07764    0   15   95.59846   55.07764  42.4%     -    0s
     0     0   55.47065    0   16   95.59846   55.47065  42.0%     -    0s
     0     0   56.03105    0   12   95.59846   56.03105  41.4%     -    1s
H    0     0                      92.0810244   56.03105  39.2%     -    1s
     0     0   56.03105    0   16   92.08102   56.03105  39.2%     -    1s
     0     0   56.08147    0   15   92.08102   56.08147  39.1%     -    1s
     0     0   56.46826    0   12   92.08102   56.46826  38.7%     -    1s
H    0     0                      88.7007869   56.83422  35.9%     -    1s
     0     0   56.83422    0   16   88.70079   56.83422  35.9%     -    1s
     0     0   56.83422    0   16   88.70079   56.83422  35.9%     -    1s
     0     0   56.83422    0   16   88.70079   56.83422  35.9%     -    1s
     0     0   56.83422    0   16   88.70079   56.83422  35.9%     -    1s
     0     0   56.96852    0   15   88.70079   56.96852  35.8%     -    1s
H    0     0                      75.2151694   56.96852  24.3%     -    7s
     0     2   56.96852    0   15   75.21517   56.96852  24.3%     -    7s
H   99   125                      75.0682144   59.53649  20.7%   266   10s
  1097   336   74.65858   10   10   75.06821   62.31915  17.0%   147   21s
  2393   356   72.85923   10   10   75.06821   66.24628  11.8%   122   29s
  3697   199     cutoff   14        75.06821   71.44418  4.83%   109   34s

Cutting planes:
  Implied bound: 64
  MIR: 250
  Relax-and-lift: 16

Explored 4482 nodes (459256 simplex iterations) in 34.28 seconds (37.19 work units)
Thread count was 36 (of 36 available processors)

Solution count 9: 75.0682 75.2152 88.7008 ... 121.38

Optimal solution found (tolerance 1.00e-02)
Best objective 7.506821442065e+01, best bound 7.476173784606e+01, gap 0.4083%

Gurobi 11.0.0 (linux64) logging started Mon Jul 22 16:37:59 2024

Set parameter LogFile to value "/lustre1/scratch/348/vsc34888/JointResearch/05.Models/06.Benchmarking/M.Random_forest/RTS24_mod2_ByStages_nc40/openStarNet_RTS24_mod2_ByStages_nc40.log"
Set parameter Method to value 2
Set parameter MIPFocus to value 1
Set parameter Presolve to value 2
Set parameter RINS to value 100
Set parameter MIPGap to value 0.01
Set parameter Threads to value 36
Set parameter TimeLimit to value 259200
Set parameter IterationLimit to value 760000000
Gurobi Optimizer version 11.0.0 build v11.0.0rc2 (linux64 - "Rocky Linux 8.9 (Green Obsidian)")

CPU model: Intel(R) Xeon(R) Gold 6240 CPU @ 2.60GHz, instruction set [SSE2|AVX|AVX2|AVX512]
Thread count: 36 physical cores, 36 logical processors, using up to 36 threads

Optimize a model with 14203 rows, 9590 columns and 35346 nonzeros
Model fingerprint: 0xe6213fe0
Coefficient statistics:
  Matrix range     [1e-03, 1e+03]
  Objective range  [1e+00, 1e+00]
  Bounds range     [4e-05, 2e+00]
  RHS range        [4e-05, 3e+01]
Presolve removed 11633 rows and 5147 columns
Presolve time: 0.02s
Presolved: 2570 rows, 4483 columns, 10879 nonzeros

Ordering time: 0.00s

Barrier statistics:
 AA' NZ     : 5.135e+03
 Factor NZ  : 1.836e+04 (roughly 2 MB of memory)
 Factor Ops : 2.177e+05 (less than 1 second per iteration)
 Threads    : 1

                  Objective                Residual
Iter       Primal          Dual         Primal    Dual     Compl     Time
   0   1.59065568e+06 -1.76462114e+07  7.14e+00 1.52e+03  2.16e+04     0s
   1   1.55761310e+05 -1.18944385e+07  6.89e-01 1.82e-11  3.14e+03     0s
   2   5.19074084e+04 -4.86519714e+06  1.93e-01 5.62e-11  9.29e+02     0s
   3   2.54633742e+04 -1.01532270e+06  3.10e-02 2.46e-11  1.61e+02     0s
   4   1.32771258e+04 -1.80688687e+05  2.64e-04 1.46e-11  2.72e+01     0s
   5   5.40753666e+03 -4.65164517e+04  1.76e-05 5.46e-12  7.28e+00     0s
   6   1.48720100e+03 -1.00340688e+04  1.33e-06 3.64e-12  1.62e+00     0s
   7   5.44904856e+02 -1.71178946e+03  1.28e-07 3.64e-12  3.17e-01     0s
   8   3.26164805e+02 -6.89531890e+02  4.21e-08 3.64e-12  1.42e-01     0s
   9   1.97500998e+02 -1.16113970e+02  1.55e-08 3.64e-12  4.40e-02     0s
  10   1.02583723e+02 -5.99080400e+00  1.84e-09 3.64e-12  1.52e-02     0s
  11   8.59210957e+01  5.39920978e+01  6.11e-10 3.64e-12  4.48e-03     0s
  12   7.85035951e+01  6.72070433e+01  1.74e-10 3.64e-12  1.58e-03     0s
  13   7.62778611e+01  7.08647814e+01  5.64e-11 3.64e-12  7.59e-04     0s
  14   7.53845431e+01  7.43212173e+01  1.20e-11 3.64e-12  1.49e-04     0s
  15   7.51693951e+01  7.47944014e+01  3.58e-12 7.28e-12  5.26e-05     0s
  16   7.50736815e+01  7.50370231e+01  3.19e-12 5.46e-12  5.14e-06     0s
  17   7.50684450e+01  7.50675807e+01  2.55e-12 3.64e-12  1.21e-07     0s
  18   7.50682150e+01  7.50682133e+01  2.45e-12 3.64e-12  2.31e-10     0s
  19   7.50682144e+01  7.50682144e+01  2.37e-12 7.28e-12  2.62e-16     0s

Barrier solved model in 19 iterations and 0.05 seconds (0.05 work units)
Optimal objective 7.50682144e+01

Crossover log...

     509 DPushes remaining with DInf 0.0000000e+00                 0s
       0 DPushes remaining with DInf 0.0000000e+00                 0s

     124 PPushes remaining with PInf 0.0000000e+00                 0s
       0 PPushes remaining with PInf 0.0000000e+00                 0s

  Push phase complete: Pinf 0.0000000e+00, Dinf 8.3142093e-13      0s

Iteration    Objective       Primal Inf.    Dual Inf.      Time
     131    7.5068214e+01   0.000000e+00   0.000000e+00      0s

Use crossover to convert LP symmetric solution to basic solution...
Crossover log...

      97 PPushes remaining with PInf 0.0000000e+00                 0s
       0 PPushes remaining with PInf 0.0000000e+00                 0s

  Push phase complete: Pinf 0.0000000e+00, Dinf 9.4808041e-13      0s

Iteration    Objective       Primal Inf.    Dual Inf.      Time
     231    7.5068214e+01   0.000000e+00   0.000000e+00      0s

Solved in 231 iterations and 0.07 seconds (0.05 work units)
Optimal objective  7.506821442e+01
